NAME: random-11-27659
TYPE: TSP
COMMENT: size=11 seed=27659
DIMENSION: 24
EDGE_WEIGHT_TYPE: EUC_2D
NODE_COORD_SECTION
+0 813 305
-0 813 305
+1 325 16
-1 749 530
+2 421 987
-2 231 933
+3 227 146
-3 167 927
+4 232 247
-4 772 652
+5 768 606
-5 601 565
+6 652 469
-6 920 560
+7 362 847
-7 757 927
+8 835 89
-8 517 681
+9 955 304
-9 644 751
+10 949 976
-10 751 885
+11 675 485
-11 162 879
PRECEDENCE_SECTION
+0 -0
+1 -1
+2 -2
+3 -3
+4 -4
+5 -5
+6 -6
+7 -7
+8 -8
+9 -9
+10 -10
+11 -11
EOF
